73
120
84	15
83	11
82	11
81	4
80	11
79	11
78	11
77	9
76	9
75	9
74	12
73	11
72	15
71	11
70	14
69	11
68	16
67	4
66	5
65	18
64	5
63	10
62	8
61	14
60	6
59	11
58	6
57	12
56	11
55	11
54	6
53	4
52	18
51	8
50	11
49	6
48	14
47	11
46	8
45	10
44	12
43	17
42	11
41	14
40	7
39	8
38	13
37	7
36	17
35	11
34	7
33	7
32	9
31	11
30	10
29	7
28	6
27	8
26	17
25	7
24	10
23	16
22	11
21	5
20	8
19	11
18	10
17	9
16	12
15	11
14	12
13	9
12	12
